72 300 187 145 116 193 149 3 151 153 179 103 137 182 59 59 128 165 192 6 110 121 129 172 158 110 77 73 64 141 189 47 164 175 192 79 167 92 34 70 45 164 124 181 145 182 191 72 98 183 77 159 103 5 82 60 66 159 84 130 99 72 176 15 198 119 93 117 11 126 186 7 42 61 